c Normal CircuitSAT reduced to SAT
p cnf 631 1949
65 0
-66 0
-67 0
-68 0
69 0
70 0
-71 0
-72 0
-73 0
-74 0
75 0
-76 0
77 0
-78 0
79 0
80 0
-81 0
-82 0
-83 0
-84 0
-85 0
-86 0
-87 0
-88 0
-89 0
-90 0
-91 0
-92 0
-93 0
-94 0
-95 0
-96 0
-97 0
-98 0
-99 0
-100 0
-101 0
-102 0
-103 0
-104 0
-105 0
-106 0
-107 0
-108 0
-109 0
-110 0
-111 0
-112 0
-113 0
-114 0
-115 0
-116 0
-117 0
-118 0
-119 0
-120 0
-121 0
-122 0
-123 0
-124 0
-125 0
-126 0
-127 0
-128 0
64 128 -129 0
64 -128 129 0
-64 128 129 0
-64 -128 -129 0
63 127 -130 0
63 -127 130 0
-63 127 130 0
-63 -127 -130 0
62 126 -131 0
62 -126 131 0
-62 126 131 0
-62 -126 -131 0
61 125 -132 0
61 -125 132 0
-61 125 132 0
-61 -125 -132 0
60 124 -133 0
60 -124 133 0
-60 124 133 0
-60 -124 -133 0
59 123 -134 0
59 -123 134 0
-59 123 134 0
-59 -123 -134 0
58 122 -135 0
58 -122 135 0
-58 122 135 0
-58 -122 -135 0
57 121 -136 0
57 -121 136 0
-57 121 136 0
-57 -121 -136 0
56 120 -137 0
56 -120 137 0
-56 120 137 0
-56 -120 -137 0
55 119 -138 0
55 -119 138 0
-55 119 138 0
-55 -119 -138 0
54 118 -139 0
54 -118 139 0
-54 118 139 0
-54 -118 -139 0
53 117 -140 0
53 -117 140 0
-53 117 140 0
-53 -117 -140 0
52 116 -141 0
52 -116 141 0
-52 116 141 0
-52 -116 -141 0
51 115 -142 0
51 -115 142 0
-51 115 142 0
-51 -115 -142 0
50 114 -143 0
50 -114 143 0
-50 114 143 0
-50 -114 -143 0
49 113 -144 0
49 -113 144 0
-49 113 144 0
-49 -113 -144 0
48 112 -145 0
48 -112 145 0
-48 112 145 0
-48 -112 -145 0
47 111 -146 0
47 -111 146 0
-47 111 146 0
-47 -111 -146 0
46 110 -147 0
46 -110 147 0
-46 110 147 0
-46 -110 -147 0
45 109 -148 0
45 -109 148 0
-45 109 148 0
-45 -109 -148 0
44 108 -149 0
44 -108 149 0
-44 108 149 0
-44 -108 -149 0
43 107 -150 0
43 -107 150 0
-43 107 150 0
-43 -107 -150 0
42 106 -151 0
42 -106 151 0
-42 106 151 0
-42 -106 -151 0
41 105 -152 0
41 -105 152 0
-41 105 152 0
-41 -105 -152 0
40 104 -153 0
40 -104 153 0
-40 104 153 0
-40 -104 -153 0
39 103 -154 0
39 -103 154 0
-39 103 154 0
-39 -103 -154 0
38 102 -155 0
38 -102 155 0
-38 102 155 0
-38 -102 -155 0
37 101 -156 0
37 -101 156 0
-37 101 156 0
-37 -101 -156 0
36 100 -157 0
36 -100 157 0
-36 100 157 0
-36 -100 -157 0
35 99 -158 0
35 -99 158 0
-35 99 158 0
-35 -99 -158 0
34 98 -159 0
34 -98 159 0
-34 98 159 0
-34 -98 -159 0
33 97 -160 0
33 -97 160 0
-33 97 160 0
-33 -97 -160 0
32 96 -161 0
32 -96 161 0
-32 96 161 0
-32 -96 -161 0
31 95 -162 0
31 -95 162 0
-31 95 162 0
-31 -95 -162 0
30 94 -163 0
30 -94 163 0
-30 94 163 0
-30 -94 -163 0
29 93 -164 0
29 -93 164 0
-29 93 164 0
-29 -93 -164 0
28 92 -165 0
28 -92 165 0
-28 92 165 0
-28 -92 -165 0
27 91 -166 0
27 -91 166 0
-27 91 166 0
-27 -91 -166 0
26 90 -167 0
26 -90 167 0
-26 90 167 0
-26 -90 -167 0
25 89 -168 0
25 -89 168 0
-25 89 168 0
-25 -89 -168 0
24 88 -169 0
24 -88 169 0
-24 88 169 0
-24 -88 -169 0
23 87 -170 0
23 -87 170 0
-23 87 170 0
-23 -87 -170 0
22 86 -171 0
22 -86 171 0
-22 86 171 0
-22 -86 -171 0
21 85 -172 0
21 -85 172 0
-21 85 172 0
-21 -85 -172 0
20 84 -173 0
20 -84 173 0
-20 84 173 0
-20 -84 -173 0
19 83 -174 0
19 -83 174 0
-19 83 174 0
-19 -83 -174 0
18 82 -175 0
18 -82 175 0
-18 82 175 0
-18 -82 -175 0
17 81 -176 0
17 -81 176 0
-17 81 176 0
-17 -81 -176 0
16 80 -177 0
16 -80 177 0
-16 80 177 0
-16 -80 -177 0
15 79 -178 0
15 -79 178 0
-15 79 178 0
-15 -79 -178 0
14 78 -179 0
14 -78 179 0
-14 78 179 0
-14 -78 -179 0
13 77 -180 0
13 -77 180 0
-13 77 180 0
-13 -77 -180 0
12 76 -181 0
12 -76 181 0
-12 76 181 0
-12 -76 -181 0
11 75 -182 0
11 -75 182 0
-11 75 182 0
-11 -75 -182 0
10 74 -183 0
10 -74 183 0
-10 74 183 0
-10 -74 -183 0
9 73 -184 0
9 -73 184 0
-9 73 184 0
-9 -73 -184 0
8 72 -185 0
8 -72 185 0
-8 72 185 0
-8 -72 -185 0
7 71 -186 0
7 -71 186 0
-7 71 186 0
-7 -71 -186 0
6 70 -187 0
6 -70 187 0
-6 70 187 0
-6 -70 -187 0
5 69 -188 0
5 -69 188 0
-5 69 188 0
-5 -69 -188 0
4 68 -189 0
4 -68 189 0
-4 68 189 0
-4 -68 -189 0
3 67 -190 0
3 -67 190 0
-3 67 190 0
-3 -67 -190 0
2 66 -191 0
2 -66 191 0
-2 66 191 0
-2 -66 -191 0
1 65 -192 0
1 -65 -192 0
-1 65 -192 0
-1 -65 192 0
66 192 -193 0
66 -192 193 0
-66 192 193 0
-66 -192 -193 0
2 192 -194 0
2 -192 194 0
-2 192 194 0
-2 -192 -194 0
194 193 -195 0
194 -193 -195 0
-194 193 -195 0
-194 -193 195 0
195 192 -196 0
195 -192 196 0
-195 192 196 0
-195 -192 -196 0
67 196 -197 0
67 -196 197 0
-67 196 197 0
-67 -196 -197 0
3 196 -198 0
3 -196 198 0
-3 196 198 0
-3 -196 -198 0
198 197 -199 0
198 -197 -199 0
-198 197 -199 0
-198 -197 199 0
199 196 -200 0
199 -196 200 0
-199 196 200 0
-199 -196 -200 0
68 200 -201 0
68 -200 201 0
-68 200 201 0
-68 -200 -201 0
4 200 -202 0
4 -200 202 0
-4 200 202 0
-4 -200 -202 0
202 201 -203 0
202 -201 -203 0
-202 201 -203 0
-202 -201 203 0
203 200 -204 0
203 -200 204 0
-203 200 204 0
-203 -200 -204 0
69 204 -205 0
69 -204 205 0
-69 204 205 0
-69 -204 -205 0
5 204 -206 0
5 -204 206 0
-5 204 206 0
-5 -204 -206 0
206 205 -207 0
206 -205 -207 0
-206 205 -207 0
-206 -205 207 0
207 204 -208 0
207 -204 208 0
-207 204 208 0
-207 -204 -208 0
70 208 -209 0
70 -208 209 0
-70 208 209 0
-70 -208 -209 0
6 208 -210 0
6 -208 210 0
-6 208 210 0
-6 -208 -210 0
210 209 -211 0
210 -209 -211 0
-210 209 -211 0
-210 -209 211 0
211 208 -212 0
211 -208 212 0
-211 208 212 0
-211 -208 -212 0
71 212 -213 0
71 -212 213 0
-71 212 213 0
-71 -212 -213 0
7 212 -214 0
7 -212 214 0
-7 212 214 0
-7 -212 -214 0
214 213 -215 0
214 -213 -215 0
-214 213 -215 0
-214 -213 215 0
215 212 -216 0
215 -212 216 0
-215 212 216 0
-215 -212 -216 0
72 216 -217 0
72 -216 217 0
-72 216 217 0
-72 -216 -217 0
8 216 -218 0
8 -216 218 0
-8 216 218 0
-8 -216 -218 0
218 217 -219 0
218 -217 -219 0
-218 217 -219 0
-218 -217 219 0
219 216 -220 0
219 -216 220 0
-219 216 220 0
-219 -216 -220 0
73 220 -221 0
73 -220 221 0
-73 220 221 0
-73 -220 -221 0
9 220 -222 0
9 -220 222 0
-9 220 222 0
-9 -220 -222 0
222 221 -223 0
222 -221 -223 0
-222 221 -223 0
-222 -221 223 0
223 220 -224 0
223 -220 224 0
-223 220 224 0
-223 -220 -224 0
74 224 -225 0
74 -224 225 0
-74 224 225 0
-74 -224 -225 0
10 224 -226 0
10 -224 226 0
-10 224 226 0
-10 -224 -226 0
226 225 -227 0
226 -225 -227 0
-226 225 -227 0
-226 -225 227 0
227 224 -228 0
227 -224 228 0
-227 224 228 0
-227 -224 -228 0
75 228 -229 0
75 -228 229 0
-75 228 229 0
-75 -228 -229 0
11 228 -230 0
11 -228 230 0
-11 228 230 0
-11 -228 -230 0
230 229 -231 0
230 -229 -231 0
-230 229 -231 0
-230 -229 231 0
231 228 -232 0
231 -228 232 0
-231 228 232 0
-231 -228 -232 0
76 232 -233 0
76 -232 233 0
-76 232 233 0
-76 -232 -233 0
12 232 -234 0
12 -232 234 0
-12 232 234 0
-12 -232 -234 0
234 233 -235 0
234 -233 -235 0
-234 233 -235 0
-234 -233 235 0
235 232 -236 0
235 -232 236 0
-235 232 236 0
-235 -232 -236 0
77 236 -237 0
77 -236 237 0
-77 236 237 0
-77 -236 -237 0
13 236 -238 0
13 -236 238 0
-13 236 238 0
-13 -236 -238 0
238 237 -239 0
238 -237 -239 0
-238 237 -239 0
-238 -237 239 0
239 236 -240 0
239 -236 240 0
-239 236 240 0
-239 -236 -240 0
78 240 -241 0
78 -240 241 0
-78 240 241 0
-78 -240 -241 0
14 240 -242 0
14 -240 242 0
-14 240 242 0
-14 -240 -242 0
242 241 -243 0
242 -241 -243 0
-242 241 -243 0
-242 -241 243 0
243 240 -244 0
243 -240 244 0
-243 240 244 0
-243 -240 -244 0
79 244 -245 0
79 -244 245 0
-79 244 245 0
-79 -244 -245 0
15 244 -246 0
15 -244 246 0
-15 244 246 0
-15 -244 -246 0
246 245 -247 0
246 -245 -247 0
-246 245 -247 0
-246 -245 247 0
247 244 -248 0
247 -244 248 0
-247 244 248 0
-247 -244 -248 0
80 248 -249 0
80 -248 249 0
-80 248 249 0
-80 -248 -249 0
16 248 -250 0
16 -248 250 0
-16 248 250 0
-16 -248 -250 0
250 249 -251 0
250 -249 -251 0
-250 249 -251 0
-250 -249 251 0
251 248 -252 0
251 -248 252 0
-251 248 252 0
-251 -248 -252 0
81 252 -253 0
81 -252 253 0
-81 252 253 0
-81 -252 -253 0
17 252 -254 0
17 -252 254 0
-17 252 254 0
-17 -252 -254 0
254 253 -255 0
254 -253 -255 0
-254 253 -255 0
-254 -253 255 0
255 252 -256 0
255 -252 256 0
-255 252 256 0
-255 -252 -256 0
82 256 -257 0
82 -256 257 0
-82 256 257 0
-82 -256 -257 0
18 256 -258 0
18 -256 258 0
-18 256 258 0
-18 -256 -258 0
258 257 -259 0
258 -257 -259 0
-258 257 -259 0
-258 -257 259 0
259 256 -260 0
259 -256 260 0
-259 256 260 0
-259 -256 -260 0
83 260 -261 0
83 -260 261 0
-83 260 261 0
-83 -260 -261 0
19 260 -262 0
19 -260 262 0
-19 260 262 0
-19 -260 -262 0
262 261 -263 0
262 -261 -263 0
-262 261 -263 0
-262 -261 263 0
263 260 -264 0
263 -260 264 0
-263 260 264 0
-263 -260 -264 0
84 264 -265 0
84 -264 265 0
-84 264 265 0
-84 -264 -265 0
20 264 -266 0
20 -264 266 0
-20 264 266 0
-20 -264 -266 0
266 265 -267 0
266 -265 -267 0
-266 265 -267 0
-266 -265 267 0
267 264 -268 0
267 -264 268 0
-267 264 268 0
-267 -264 -268 0
85 268 -269 0
85 -268 269 0
-85 268 269 0
-85 -268 -269 0
21 268 -270 0
21 -268 270 0
-21 268 270 0
-21 -268 -270 0
270 269 -271 0
270 -269 -271 0
-270 269 -271 0
-270 -269 271 0
271 268 -272 0
271 -268 272 0
-271 268 272 0
-271 -268 -272 0
86 272 -273 0
86 -272 273 0
-86 272 273 0
-86 -272 -273 0
22 272 -274 0
22 -272 274 0
-22 272 274 0
-22 -272 -274 0
274 273 -275 0
274 -273 -275 0
-274 273 -275 0
-274 -273 275 0
275 272 -276 0
275 -272 276 0
-275 272 276 0
-275 -272 -276 0
87 276 -277 0
87 -276 277 0
-87 276 277 0
-87 -276 -277 0
23 276 -278 0
23 -276 278 0
-23 276 278 0
-23 -276 -278 0
278 277 -279 0
278 -277 -279 0
-278 277 -279 0
-278 -277 279 0
279 276 -280 0
279 -276 280 0
-279 276 280 0
-279 -276 -280 0
88 280 -281 0
88 -280 281 0
-88 280 281 0
-88 -280 -281 0
24 280 -282 0
24 -280 282 0
-24 280 282 0
-24 -280 -282 0
282 281 -283 0
282 -281 -283 0
-282 281 -283 0
-282 -281 283 0
283 280 -284 0
283 -280 284 0
-283 280 284 0
-283 -280 -284 0
89 284 -285 0
89 -284 285 0
-89 284 285 0
-89 -284 -285 0
25 284 -286 0
25 -284 286 0
-25 284 286 0
-25 -284 -286 0
286 285 -287 0
286 -285 -287 0
-286 285 -287 0
-286 -285 287 0
287 284 -288 0
287 -284 288 0
-287 284 288 0
-287 -284 -288 0
90 288 -289 0
90 -288 289 0
-90 288 289 0
-90 -288 -289 0
26 288 -290 0
26 -288 290 0
-26 288 290 0
-26 -288 -290 0
290 289 -291 0
290 -289 -291 0
-290 289 -291 0
-290 -289 291 0
291 288 -292 0
291 -288 292 0
-291 288 292 0
-291 -288 -292 0
91 292 -293 0
91 -292 293 0
-91 292 293 0
-91 -292 -293 0
27 292 -294 0
27 -292 294 0
-27 292 294 0
-27 -292 -294 0
294 293 -295 0
294 -293 -295 0
-294 293 -295 0
-294 -293 295 0
295 292 -296 0
295 -292 296 0
-295 292 296 0
-295 -292 -296 0
92 296 -297 0
92 -296 297 0
-92 296 297 0
-92 -296 -297 0
28 296 -298 0
28 -296 298 0
-28 296 298 0
-28 -296 -298 0
298 297 -299 0
298 -297 -299 0
-298 297 -299 0
-298 -297 299 0
299 296 -300 0
299 -296 300 0
-299 296 300 0
-299 -296 -300 0
93 300 -301 0
93 -300 301 0
-93 300 301 0
-93 -300 -301 0
29 300 -302 0
29 -300 302 0
-29 300 302 0
-29 -300 -302 0
302 301 -303 0
302 -301 -303 0
-302 301 -303 0
-302 -301 303 0
303 300 -304 0
303 -300 304 0
-303 300 304 0
-303 -300 -304 0
94 304 -305 0
94 -304 305 0
-94 304 305 0
-94 -304 -305 0
30 304 -306 0
30 -304 306 0
-30 304 306 0
-30 -304 -306 0
306 305 -307 0
306 -305 -307 0
-306 305 -307 0
-306 -305 307 0
307 304 -308 0
307 -304 308 0
-307 304 308 0
-307 -304 -308 0
95 308 -309 0
95 -308 309 0
-95 308 309 0
-95 -308 -309 0
31 308 -310 0
31 -308 310 0
-31 308 310 0
-31 -308 -310 0
310 309 -311 0
310 -309 -311 0
-310 309 -311 0
-310 -309 311 0
311 308 -312 0
311 -308 312 0
-311 308 312 0
-311 -308 -312 0
32 312 -313 0
32 -312 313 0
-32 312 313 0
-32 -312 -313 0
96 312 -314 0
96 -312 314 0
-96 312 314 0
-96 -312 -314 0
313 314 -315 0
313 -314 -315 0
-313 314 -315 0
-313 -314 315 0
315 312 -316 0
315 -312 316 0
-315 312 316 0
-315 -312 -316 0
97 316 -317 0
97 -316 317 0
-97 316 317 0
-97 -316 -317 0
33 316 -318 0
33 -316 318 0
-33 316 318 0
-33 -316 -318 0
318 317 -319 0
318 -317 -319 0
-318 317 -319 0
-318 -317 319 0
319 316 -320 0
319 -316 320 0
-319 316 320 0
-319 -316 -320 0
98 320 -321 0
98 -320 321 0
-98 320 321 0
-98 -320 -321 0
34 320 -322 0
34 -320 322 0
-34 320 322 0
-34 -320 -322 0
322 321 -323 0
322 -321 -323 0
-322 321 -323 0
-322 -321 323 0
323 320 -324 0
323 -320 324 0
-323 320 324 0
-323 -320 -324 0
99 324 -325 0
99 -324 325 0
-99 324 325 0
-99 -324 -325 0
35 324 -326 0
35 -324 326 0
-35 324 326 0
-35 -324 -326 0
326 325 -327 0
326 -325 -327 0
-326 325 -327 0
-326 -325 327 0
327 324 -328 0
327 -324 328 0
-327 324 328 0
-327 -324 -328 0
36 328 -329 0
36 -328 329 0
-36 328 329 0
-36 -328 -329 0
100 328 -330 0
100 -328 330 0
-100 328 330 0
-100 -328 -330 0
329 330 -331 0
329 -330 -331 0
-329 330 -331 0
-329 -330 331 0
331 328 -332 0
331 -328 332 0
-331 328 332 0
-331 -328 -332 0
101 332 -333 0
101 -332 333 0
-101 332 333 0
-101 -332 -333 0
37 332 -334 0
37 -332 334 0
-37 332 334 0
-37 -332 -334 0
334 333 -335 0
334 -333 -335 0
-334 333 -335 0
-334 -333 335 0
335 332 -336 0
335 -332 336 0
-335 332 336 0
-335 -332 -336 0
102 336 -337 0
102 -336 337 0
-102 336 337 0
-102 -336 -337 0
38 336 -338 0
38 -336 338 0
-38 336 338 0
-38 -336 -338 0
338 337 -339 0
338 -337 -339 0
-338 337 -339 0
-338 -337 339 0
339 336 -340 0
339 -336 340 0
-339 336 340 0
-339 -336 -340 0
103 340 -341 0
103 -340 341 0
-103 340 341 0
-103 -340 -341 0
39 340 -342 0
39 -340 342 0
-39 340 342 0
-39 -340 -342 0
342 341 -343 0
342 -341 -343 0
-342 341 -343 0
-342 -341 343 0
343 340 -344 0
343 -340 344 0
-343 340 344 0
-343 -340 -344 0
40 344 -345 0
40 -344 345 0
-40 344 345 0
-40 -344 -345 0
104 344 -346 0
104 -344 346 0
-104 344 346 0
-104 -344 -346 0
345 346 -347 0
345 -346 -347 0
-345 346 -347 0
-345 -346 347 0
347 344 -348 0
347 -344 348 0
-347 344 348 0
-347 -344 -348 0
105 348 -349 0
105 -348 349 0
-105 348 349 0
-105 -348 -349 0
41 348 -350 0
41 -348 350 0
-41 348 350 0
-41 -348 -350 0
350 349 -351 0
350 -349 -351 0
-350 349 -351 0
-350 -349 351 0
351 348 -352 0
351 -348 352 0
-351 348 352 0
-351 -348 -352 0
106 352 -353 0
106 -352 353 0
-106 352 353 0
-106 -352 -353 0
42 352 -354 0
42 -352 354 0
-42 352 354 0
-42 -352 -354 0
354 353 -355 0
354 -353 -355 0
-354 353 -355 0
-354 -353 355 0
355 352 -356 0
355 -352 356 0
-355 352 356 0
-355 -352 -356 0
107 356 -357 0
107 -356 357 0
-107 356 357 0
-107 -356 -357 0
43 356 -358 0
43 -356 358 0
-43 356 358 0
-43 -356 -358 0
358 357 -359 0
358 -357 -359 0
-358 357 -359 0
-358 -357 359 0
359 356 -360 0
359 -356 360 0
-359 356 360 0
-359 -356 -360 0
44 360 -361 0
44 -360 361 0
-44 360 361 0
-44 -360 -361 0
108 360 -362 0
108 -360 362 0
-108 360 362 0
-108 -360 -362 0
361 362 -363 0
361 -362 -363 0
-361 362 -363 0
-361 -362 363 0
363 360 -364 0
363 -360 364 0
-363 360 364 0
-363 -360 -364 0
109 364 -365 0
109 -364 365 0
-109 364 365 0
-109 -364 -365 0
45 364 -366 0
45 -364 366 0
-45 364 366 0
-45 -364 -366 0
366 365 -367 0
366 -365 -367 0
-366 365 -367 0
-366 -365 367 0
367 364 -368 0
367 -364 368 0
-367 364 368 0
-367 -364 -368 0
110 368 -369 0
110 -368 369 0
-110 368 369 0
-110 -368 -369 0
46 368 -370 0
46 -368 370 0
-46 368 370 0
-46 -368 -370 0
370 369 -371 0
370 -369 -371 0
-370 369 -371 0
-370 -369 371 0
371 368 -372 0
371 -368 372 0
-371 368 372 0
-371 -368 -372 0
111 372 -373 0
111 -372 373 0
-111 372 373 0
-111 -372 -373 0
47 372 -374 0
47 -372 374 0
-47 372 374 0
-47 -372 -374 0
374 373 -375 0
374 -373 -375 0
-374 373 -375 0
-374 -373 375 0
375 372 -376 0
375 -372 376 0
-375 372 376 0
-375 -372 -376 0
48 376 -377 0
48 -376 377 0
-48 376 377 0
-48 -376 -377 0
112 376 -378 0
112 -376 378 0
-112 376 378 0
-112 -376 -378 0
377 378 -379 0
377 -378 -379 0
-377 378 -379 0
-377 -378 379 0
379 376 -380 0
379 -376 380 0
-379 376 380 0
-379 -376 -380 0
113 380 -381 0
113 -380 381 0
-113 380 381 0
-113 -380 -381 0
49 380 -382 0
49 -380 382 0
-49 380 382 0
-49 -380 -382 0
382 381 -383 0
382 -381 -383 0
-382 381 -383 0
-382 -381 383 0
383 380 -384 0
383 -380 384 0
-383 380 384 0
-383 -380 -384 0
114 384 -385 0
114 -384 385 0
-114 384 385 0
-114 -384 -385 0
50 384 -386 0
50 -384 386 0
-50 384 386 0
-50 -384 -386 0
386 385 -387 0
386 -385 -387 0
-386 385 -387 0
-386 -385 387 0
387 384 -388 0
387 -384 388 0
-387 384 388 0
-387 -384 -388 0
115 388 -389 0
115 -388 389 0
-115 388 389 0
-115 -388 -389 0
51 388 -390 0
51 -388 390 0
-51 388 390 0
-51 -388 -390 0
390 389 -391 0
390 -389 -391 0
-390 389 -391 0
-390 -389 391 0
391 388 -392 0
391 -388 392 0
-391 388 392 0
-391 -388 -392 0
116 392 -393 0
116 -392 393 0
-116 392 393 0
-116 -392 -393 0
52 392 -394 0
52 -392 394 0
-52 392 394 0
-52 -392 -394 0
394 393 -395 0
394 -393 -395 0
-394 393 -395 0
-394 -393 395 0
395 392 -396 0
395 -392 396 0
-395 392 396 0
-395 -392 -396 0
117 396 -397 0
117 -396 397 0
-117 396 397 0
-117 -396 -397 0
53 396 -398 0
53 -396 398 0
-53 396 398 0
-53 -396 -398 0
398 397 -399 0
398 -397 -399 0
-398 397 -399 0
-398 -397 399 0
399 396 -400 0
399 -396 400 0
-399 396 400 0
-399 -396 -400 0
118 400 -401 0
118 -400 401 0
-118 400 401 0
-118 -400 -401 0
54 400 -402 0
54 -400 402 0
-54 400 402 0
-54 -400 -402 0
402 401 -403 0
402 -401 -403 0
-402 401 -403 0
-402 -401 403 0
403 400 -404 0
403 -400 404 0
-403 400 404 0
-403 -400 -404 0
119 404 -405 0
119 -404 405 0
-119 404 405 0
-119 -404 -405 0
55 404 -406 0
55 -404 406 0
-55 404 406 0
-55 -404 -406 0
406 405 -407 0
406 -405 -407 0
-406 405 -407 0
-406 -405 407 0
407 404 -408 0
407 -404 408 0
-407 404 408 0
-407 -404 -408 0
120 408 -409 0
120 -408 409 0
-120 408 409 0
-120 -408 -409 0
56 408 -410 0
56 -408 410 0
-56 408 410 0
-56 -408 -410 0
410 409 -411 0
410 -409 -411 0
-410 409 -411 0
-410 -409 411 0
411 408 -412 0
411 -408 412 0
-411 408 412 0
-411 -408 -412 0
121 412 -413 0
121 -412 413 0
-121 412 413 0
-121 -412 -413 0
57 412 -414 0
57 -412 414 0
-57 412 414 0
-57 -412 -414 0
414 413 -415 0
414 -413 -415 0
-414 413 -415 0
-414 -413 415 0
415 412 -416 0
415 -412 416 0
-415 412 416 0
-415 -412 -416 0
122 416 -417 0
122 -416 417 0
-122 416 417 0
-122 -416 -417 0
58 416 -418 0
58 -416 418 0
-58 416 418 0
-58 -416 -418 0
418 417 -419 0
418 -417 -419 0
-418 417 -419 0
-418 -417 419 0
419 416 -420 0
419 -416 420 0
-419 416 420 0
-419 -416 -420 0
123 420 -421 0
123 -420 421 0
-123 420 421 0
-123 -420 -421 0
59 420 -422 0
59 -420 422 0
-59 420 422 0
-59 -420 -422 0
422 421 -423 0
422 -421 -423 0
-422 421 -423 0
-422 -421 423 0
423 420 -424 0
423 -420 424 0
-423 420 424 0
-423 -420 -424 0
124 424 -425 0
124 -424 425 0
-124 424 425 0
-124 -424 -425 0
60 424 -426 0
60 -424 426 0
-60 424 426 0
-60 -424 -426 0
426 425 -427 0
426 -425 -427 0
-426 425 -427 0
-426 -425 427 0
427 424 -428 0
427 -424 428 0
-427 424 428 0
-427 -424 -428 0
61 428 -429 0
61 -428 429 0
-61 428 429 0
-61 -428 -429 0
125 428 -430 0
125 -428 430 0
-125 428 430 0
-125 -428 -430 0
429 430 -431 0
429 -430 -431 0
-429 430 -431 0
-429 -430 431 0
431 428 -432 0
431 -428 432 0
-431 428 432 0
-431 -428 -432 0
126 432 -433 0
126 -432 433 0
-126 432 433 0
-126 -432 -433 0
62 432 -434 0
62 -432 434 0
-62 432 434 0
-62 -432 -434 0
434 433 -435 0
434 -433 -435 0
-434 433 -435 0
-434 -433 435 0
435 432 -436 0
435 -432 436 0
-435 432 436 0
-435 -432 -436 0
127 436 -437 0
127 -436 437 0
-127 436 437 0
-127 -436 -437 0
63 436 -438 0
63 -436 438 0
-63 436 438 0
-63 -436 -438 0
438 437 -439 0
438 -437 -439 0
-438 437 -439 0
-438 -437 439 0
439 436 -440 0
439 -436 440 0
-439 436 440 0
-439 -436 -440 0
1 65 -441 0
1 -65 441 0
-1 65 441 0
-1 -65 -441 0
191 192 -442 0
191 -192 442 0
-191 192 442 0
-191 -192 -442 0
190 196 -443 0
190 -196 443 0
-190 196 443 0
-190 -196 -443 0
189 200 -444 0
189 -200 444 0
-189 200 444 0
-189 -200 -444 0
188 204 -445 0
188 -204 445 0
-188 204 445 0
-188 -204 -445 0
187 208 -446 0
187 -208 446 0
-187 208 446 0
-187 -208 -446 0
186 212 -447 0
186 -212 447 0
-186 212 447 0
-186 -212 -447 0
185 216 -448 0
185 -216 448 0
-185 216 448 0
-185 -216 -448 0
184 220 -449 0
184 -220 449 0
-184 220 449 0
-184 -220 -449 0
183 224 -450 0
183 -224 450 0
-183 224 450 0
-183 -224 -450 0
182 228 -451 0
182 -228 451 0
-182 228 451 0
-182 -228 -451 0
181 232 -452 0
181 -232 452 0
-181 232 452 0
-181 -232 -452 0
180 236 -453 0
180 -236 453 0
-180 236 453 0
-180 -236 -453 0
179 240 -454 0
179 -240 454 0
-179 240 454 0
-179 -240 -454 0
178 244 -455 0
178 -244 455 0
-178 244 455 0
-178 -244 -455 0
177 248 -456 0
177 -248 456 0
-177 248 456 0
-177 -248 -456 0
176 252 -457 0
176 -252 457 0
-176 252 457 0
-176 -252 -457 0
175 256 -458 0
175 -256 458 0
-175 256 458 0
-175 -256 -458 0
174 260 -459 0
174 -260 459 0
-174 260 459 0
-174 -260 -459 0
173 264 -460 0
173 -264 460 0
-173 264 460 0
-173 -264 -460 0
172 268 -461 0
172 -268 461 0
-172 268 461 0
-172 -268 -461 0
171 272 -462 0
171 -272 462 0
-171 272 462 0
-171 -272 -462 0
170 276 -463 0
170 -276 463 0
-170 276 463 0
-170 -276 -463 0
169 280 -464 0
169 -280 464 0
-169 280 464 0
-169 -280 -464 0
168 284 -465 0
168 -284 465 0
-168 284 465 0
-168 -284 -465 0
167 288 -466 0
167 -288 466 0
-167 288 466 0
-167 -288 -466 0
166 292 -467 0
166 -292 467 0
-166 292 467 0
-166 -292 -467 0
165 296 -468 0
165 -296 468 0
-165 296 468 0
-165 -296 -468 0
164 300 -469 0
164 -300 469 0
-164 300 469 0
-164 -300 -469 0
163 304 -470 0
163 -304 470 0
-163 304 470 0
-163 -304 -470 0
162 308 -471 0
162 -308 471 0
-162 308 471 0
-162 -308 -471 0
161 312 -472 0
161 -312 472 0
-161 312 472 0
-161 -312 -472 0
160 316 -473 0
160 -316 473 0
-160 316 473 0
-160 -316 -473 0
159 320 -474 0
159 -320 474 0
-159 320 474 0
-159 -320 -474 0
158 324 -475 0
158 -324 475 0
-158 324 475 0
-158 -324 -475 0
157 328 -476 0
157 -328 476 0
-157 328 476 0
-157 -328 -476 0
156 332 -477 0
156 -332 477 0
-156 332 477 0
-156 -332 -477 0
155 336 -478 0
155 -336 478 0
-155 336 478 0
-155 -336 -478 0
154 340 -479 0
154 -340 479 0
-154 340 479 0
-154 -340 -479 0
153 344 -480 0
153 -344 480 0
-153 344 480 0
-153 -344 -480 0
152 348 -481 0
152 -348 481 0
-152 348 481 0
-152 -348 -481 0
151 352 -482 0
151 -352 482 0
-151 352 482 0
-151 -352 -482 0
150 356 -483 0
150 -356 483 0
-150 356 483 0
-150 -356 -483 0
149 360 -484 0
149 -360 484 0
-149 360 484 0
-149 -360 -484 0
148 364 -485 0
148 -364 485 0
-148 364 485 0
-148 -364 -485 0
147 368 -486 0
147 -368 486 0
-147 368 486 0
-147 -368 -486 0
146 372 -487 0
146 -372 487 0
-146 372 487 0
-146 -372 -487 0
145 376 -488 0
145 -376 488 0
-145 376 488 0
-145 -376 -488 0
144 380 -489 0
144 -380 489 0
-144 380 489 0
-144 -380 -489 0
143 384 -490 0
143 -384 490 0
-143 384 490 0
-143 -384 -490 0
142 388 -491 0
142 -388 491 0
-142 388 491 0
-142 -388 -491 0
141 392 -492 0
141 -392 492 0
-141 392 492 0
-141 -392 -492 0
140 396 -493 0
140 -396 493 0
-140 396 493 0
-140 -396 -493 0
139 400 -494 0
139 -400 494 0
-139 400 494 0
-139 -400 -494 0
138 404 -495 0
138 -404 495 0
-138 404 495 0
-138 -404 -495 0
137 408 -496 0
137 -408 496 0
-137 408 496 0
-137 -408 -496 0
136 412 -497 0
136 -412 497 0
-136 412 497 0
-136 -412 -497 0
135 416 -498 0
135 -416 498 0
-135 416 498 0
-135 -416 -498 0
134 420 -499 0
134 -420 499 0
-134 420 499 0
-134 -420 -499 0
133 424 -500 0
133 -424 500 0
-133 424 500 0
-133 -424 -500 0
132 428 -501 0
132 -428 501 0
-132 428 501 0
-132 -428 -501 0
131 432 -502 0
131 -432 502 0
-131 432 502 0
-131 -432 -502 0
130 436 -503 0
130 -436 503 0
-130 436 503 0
-130 -436 -503 0
129 440 -504 0
129 -440 504 0
-129 440 504 0
-129 -440 -504 0
441 505 0
-441 -505 0
442 -506 0
-442 506 0
443 507 0
-443 -507 0
444 -508 0
-444 508 0
445 509 0
-445 -509 0
446 -510 0
-446 510 0
447 -511 0
-447 511 0
448 512 0
-448 -512 0
449 513 0
-449 -513 0
450 514 0
-450 -514 0
451 -515 0
-451 515 0
452 516 0
-452 -516 0
453 517 0
-453 -517 0
454 518 0
-454 -518 0
455 519 0
-455 -519 0
456 520 0
-456 -520 0
457 -521 0
-457 521 0
458 522 0
-458 -522 0
459 523 0
-459 -523 0
460 524 0
-460 -524 0
461 525 0
-461 -525 0
462 526 0
-462 -526 0
463 527 0
-463 -527 0
464 528 0
-464 -528 0
465 529 0
-465 -529 0
466 530 0
-466 -530 0
467 531 0
-467 -531 0
468 532 0
-468 -532 0
469 533 0
-469 -533 0
470 534 0
-470 -534 0
471 535 0
-471 -535 0
472 536 0
-472 -536 0
473 537 0
-473 -537 0
474 538 0
-474 -538 0
475 539 0
-475 -539 0
476 540 0
-476 -540 0
477 541 0
-477 -541 0
478 542 0
-478 -542 0
479 543 0
-479 -543 0
480 544 0
-480 -544 0
481 545 0
-481 -545 0
482 546 0
-482 -546 0
483 547 0
-483 -547 0
484 548 0
-484 -548 0
485 549 0
-485 -549 0
486 550 0
-486 -550 0
487 551 0
-487 -551 0
488 552 0
-488 -552 0
489 553 0
-489 -553 0
490 554 0
-490 -554 0
491 555 0
-491 -555 0
492 556 0
-492 -556 0
493 557 0
-493 -557 0
494 558 0
-494 -558 0
495 559 0
-495 -559 0
496 560 0
-496 -560 0
497 561 0
-497 -561 0
498 562 0
-498 -562 0
499 563 0
-499 -563 0
500 564 0
-500 -564 0
501 565 0
-501 -565 0
502 566 0
-502 -566 0
503 567 0
-503 -567 0
504 568 0
-504 -568 0
505 568 -569 0
505 -568 -569 0
-505 568 -569 0
-505 -568 569 0
506 569 -570 0
506 -569 -570 0
-506 569 -570 0
-506 -569 570 0
507 570 -571 0
507 -570 -571 0
-507 570 -571 0
-507 -570 571 0
508 571 -572 0
508 -571 -572 0
-508 571 -572 0
-508 -571 572 0
509 572 -573 0
509 -572 -573 0
-509 572 -573 0
-509 -572 573 0
510 573 -574 0
510 -573 -574 0
-510 573 -574 0
-510 -573 574 0
511 574 -575 0
511 -574 -575 0
-511 574 -575 0
-511 -574 575 0
512 575 -576 0
512 -575 -576 0
-512 575 -576 0
-512 -575 576 0
513 576 -577 0
513 -576 -577 0
-513 576 -577 0
-513 -576 577 0
514 577 -578 0
514 -577 -578 0
-514 577 -578 0
-514 -577 578 0
515 578 -579 0
515 -578 -579 0
-515 578 -579 0
-515 -578 579 0
516 579 -580 0
516 -579 -580 0
-516 579 -580 0
-516 -579 580 0
517 580 -581 0
517 -580 -581 0
-517 580 -581 0
-517 -580 581 0
518 581 -582 0
518 -581 -582 0
-518 581 -582 0
-518 -581 582 0
519 582 -583 0
519 -582 -583 0
-519 582 -583 0
-519 -582 583 0
520 583 -584 0
520 -583 -584 0
-520 583 -584 0
-520 -583 584 0
521 584 -585 0
521 -584 -585 0
-521 584 -585 0
-521 -584 585 0
522 585 -586 0
522 -585 -586 0
-522 585 -586 0
-522 -585 586 0
523 586 -587 0
523 -586 -587 0
-523 586 -587 0
-523 -586 587 0
524 587 -588 0
524 -587 -588 0
-524 587 -588 0
-524 -587 588 0
525 588 -589 0
525 -588 -589 0
-525 588 -589 0
-525 -588 589 0
526 589 -590 0
526 -589 -590 0
-526 589 -590 0
-526 -589 590 0
527 590 -591 0
527 -590 -591 0
-527 590 -591 0
-527 -590 591 0
528 591 -592 0
528 -591 -592 0
-528 591 -592 0
-528 -591 592 0
529 592 -593 0
529 -592 -593 0
-529 592 -593 0
-529 -592 593 0
530 593 -594 0
530 -593 -594 0
-530 593 -594 0
-530 -593 594 0
531 594 -595 0
531 -594 -595 0
-531 594 -595 0
-531 -594 595 0
532 595 -596 0
532 -595 -596 0
-532 595 -596 0
-532 -595 596 0
533 596 -597 0
533 -596 -597 0
-533 596 -597 0
-533 -596 597 0
534 597 -598 0
534 -597 -598 0
-534 597 -598 0
-534 -597 598 0
535 598 -599 0
535 -598 -599 0
-535 598 -599 0
-535 -598 599 0
536 599 -600 0
536 -599 -600 0
-536 599 -600 0
-536 -599 600 0
537 600 -601 0
537 -600 -601 0
-537 600 -601 0
-537 -600 601 0
538 601 -602 0
538 -601 -602 0
-538 601 -602 0
-538 -601 602 0
539 602 -603 0
539 -602 -603 0
-539 602 -603 0
-539 -602 603 0
540 603 -604 0
540 -603 -604 0
-540 603 -604 0
-540 -603 604 0
541 604 -605 0
541 -604 -605 0
-541 604 -605 0
-541 -604 605 0
542 605 -606 0
542 -605 -606 0
-542 605 -606 0
-542 -605 606 0
543 606 -607 0
543 -606 -607 0
-543 606 -607 0
-543 -606 607 0
544 607 -608 0
544 -607 -608 0
-544 607 -608 0
-544 -607 608 0
545 608 -609 0
545 -608 -609 0
-545 608 -609 0
-545 -608 609 0
546 609 -610 0
546 -609 -610 0
-546 609 -610 0
-546 -609 610 0
547 610 -611 0
547 -610 -611 0
-547 610 -611 0
-547 -610 611 0
548 611 -612 0
548 -611 -612 0
-548 611 -612 0
-548 -611 612 0
549 612 -613 0
549 -612 -613 0
-549 612 -613 0
-549 -612 613 0
550 613 -614 0
550 -613 -614 0
-550 613 -614 0
-550 -613 614 0
551 614 -615 0
551 -614 -615 0
-551 614 -615 0
-551 -614 615 0
552 615 -616 0
552 -615 -616 0
-552 615 -616 0
-552 -615 616 0
553 616 -617 0
553 -616 -617 0
-553 616 -617 0
-553 -616 617 0
554 617 -618 0
554 -617 -618 0
-554 617 -618 0
-554 -617 618 0
555 618 -619 0
555 -618 -619 0
-555 618 -619 0
-555 -618 619 0
556 619 -620 0
556 -619 -620 0
-556 619 -620 0
-556 -619 620 0
557 620 -621 0
557 -620 -621 0
-557 620 -621 0
-557 -620 621 0
558 621 -622 0
558 -621 -622 0
-558 621 -622 0
-558 -621 622 0
559 622 -623 0
559 -622 -623 0
-559 622 -623 0
-559 -622 623 0
560 623 -624 0
560 -623 -624 0
-560 623 -624 0
-560 -623 624 0
561 624 -625 0
561 -624 -625 0
-561 624 -625 0
-561 -624 625 0
562 625 -626 0
562 -625 -626 0
-562 625 -626 0
-562 -625 626 0
563 626 -627 0
563 -626 -627 0
-563 626 -627 0
-563 -626 627 0
564 627 -628 0
564 -627 -628 0
-564 627 -628 0
-564 -627 628 0
565 628 -629 0
565 -628 -629 0
-565 628 -629 0
-565 -628 629 0
566 629 -630 0
566 -629 -630 0
-566 629 -630 0
-566 -629 630 0
567 630 -631 0
567 -630 -631 0
-567 630 -631 0
-567 -630 631 0
631 0
